n = 27;
lu = [|253, 599
      |-162, 707
      |-327, -144
      |-596, -578
      |-208, 376
      |-212, -47
      |33, 96
      |-354, -222
      |-238, 276
      |-583, 576
      |444, 610
      |-568, 521
      |126, 141
      |-622, 617
      |-13, 171
      |-705, 587
      |-211, 250
      |-448, 525
      |-38, 520
      |-264, 602
      |344, 713
      |-527, -441
      |-111, 73
      |-653, 663
      |-556, 357
      |-381, 212
      |-419, 720|];
